data;

param n:=28;
param p:=3;
param r:=[1] 0 [2] 0 [3] 4 [4] 6 [5] 6 [6] 9 [7] 9 [8] 1 [9] 7 [10] 8 [11] 15 [12] 11 [13] 7 [14] 22 [15] 34 [16] 42 [17] 26 [18] 22 [19] 22 [20] 54 [21] 45 [22] 14 [23] 14 [24] 22 [25] 8 [26] 55 [27] 25 [28] 15 ;
param w:=[1] 98 [2] 60 [3] 32 [4] 46 [5] 41 [6] 71 [7] 72 [8] 83 [9] 45 [10] 63 [11] 24 [12] 98 [13] 18 [14] 84 [15] 27 [16] 91 [17] 21 [18] 59 [19] 73 [20] 77 [21] 35 [22] 96 [23] 2 [24] 44 [25] 52 [26] 22 [27] 95 [28] 39 ;

end;
